Translating instance to solver...

Set parameter TimeLimit to value 28800
Gurobi Optimizer version 11.0.2 build v11.0.2rc0 (linux64 - "Ubuntu 22.04.4 LTS")

CPU model: Intel(R) Xeon(R) Gold 5120 CPU @ 2.20GHz, instruction set [SSE2|AVX|AVX2|AVX512]
Thread count: 28 physical cores, 56 logical processors, using up to 28 threads

Academic license 2463511 - for non-commercial use only - registered to lu___@cefet-rj.br
Optimize a model with 85165 rows, 41523 columns and 194718 nonzeros
Model fingerprint: 0x7958f91d
Variable types: 1 continuous, 41522 integer (41460 binary)
Coefficient statistics:
  Matrix range     [1e+00, 1e+05]
  Objective range  [3e-01, 8e-01]
  Bounds range     [1e+00, 6e+01]
  RHS range        [1e+00, 6e+01]
Presolve removed 69243 rows and 34979 columns
Presolve time: 1.31s
Presolved: 15922 rows, 6544 columns, 46489 nonzeros
Variable types: 0 continuous, 6544 integer (6483 binary)

Root relaxation: objective 1.063923e+00, 1622 iterations, 0.09 seconds (0.11 work units)

    Nodes    |    Current Node    |     Objective Bounds      |     Work
 Expl Unexpl |  Obj  Depth IntInf | Incumbent    BestBd   Gap | It/Node Time

     0     0    1.06392    0   83          -    1.06392      -     -    2s
H    0     0                       2.5735640    1.06392  58.7%     -    2s
     0     0    1.36767    0  213    2.57356    1.36767  46.9%     -    3s
H    0     0                       1.3676730    1.36767  0.00%     -    3s

Cutting planes:
  Gomory: 1
  Implied bound: 29
  Clique: 6
  MIR: 10
  RLT: 2
  Relax-and-lift: 1

Explored 1 nodes (11430 simplex iterations) in 3.49 seconds (2.94 work units)
Thread count was 28 (of 56 available processors)

Solution count 2: 1.36767 2.57356 

Optimal solution found (tolerance 1.00e-04)
Best objective 1.367673000000e+00, best bound 1.367672696250e+00, gap 0.0000%

Solver Wallclock Time (for this epsilon): 3.4901750087738037 s
Python wallclock Time (for this epsilon): 10.120631694793701 s


Total Elapsed Time (since program call): 393.70895743370056 s

Results:

I = 1.367673 mA
C = 47.0 points
C ~= 18.8 km^2

Minimum Epsilon for this instance = 10
Maximum Epsilon for this instance = 100

Current Epsilon = 40


Preprocessing Time (for this epsilon): 0.010261297225952148 s


Updated solution vectors:
sol_I = [-0.9176730000000001,-1.223564,-1.367673,-1.367673]
sol_C = [15.0,20.0,49.0,47.0]
sol_eps = [10,20,30,40]
sol_gap = [0.0,0.0,0.0,3.0375000092952575e-07]
